(set-logic QF_LRA)
(declare-fun X0 () Real )
(declare-fun Y0 () Real )
(declare-fun X1 () Real )
(declare-fun Y1 () Real )
(declare-fun X2 () Real )
(declare-fun Y2 () Real )
(declare-fun X3 () Real )
(declare-fun Y3 () Real )
(declare-fun X4 () Real )
(declare-fun Y4 () Real )
(declare-fun X5 () Real )
(declare-fun Y5 () Real )
(declare-fun X6 () Real )
(declare-fun Y6 () Real )
(declare-fun X7 () Real )
(declare-fun Y7 () Real )
(declare-fun X8 () Real )
(declare-fun Y8 () Real )
(declare-fun X9 () Real )
(declare-fun Y9 () Real )
(declare-fun X10 () Real )
(declare-fun Y10 () Real )
(declare-fun X11 () Real )
(declare-fun Y11 () Real )
(declare-fun Z () Real )
(declare-fun k () Real )
(assert (let
(( $goal (>= Z k) ))
(let
((
$phi ( and 
( or ( <= ( + X0 15 ) X1 )  ( <= ( + X1 49 ) X0 )  ( <= ( + Y0 73 ) Y1 )  ( <= ( + Y1 41 ) Y0 )  )
( or ( <= ( + X0 15 ) X2 )  ( <= ( + X2 97 ) X0 )  ( <= ( + Y0 73 ) Y2 )  ( <= ( + Y2 1 ) Y0 )  )
( or ( <= ( + X0 15 ) X3 )  ( <= ( + X3 90 ) X0 )  ( <= ( + Y0 73 ) Y3 )  ( <= ( + Y3 25 ) Y0 )  )
( or ( <= ( + X0 15 ) X4 )  ( <= ( + X4 23 ) X0 )  ( <= ( + Y0 73 ) Y4 )  ( <= ( + Y4 1 ) Y0 )  )
( or ( <= ( + X0 15 ) X5 )  ( <= ( + X5 53 ) X0 )  ( <= ( + Y0 73 ) Y5 )  ( <= ( + Y5 10 ) Y0 )  )
( or ( <= ( + X0 15 ) X6 )  ( <= ( + X6 77 ) X0 )  ( <= ( + Y0 73 ) Y6 )  ( <= ( + Y6 39 ) Y0 )  )
( or ( <= ( + X0 15 ) X7 )  ( <= ( + X7 6 ) X0 )  ( <= ( + Y0 73 ) Y7 )  ( <= ( + Y7 11 ) Y0 )  )
( or ( <= ( + X0 15 ) X8 )  ( <= ( + X8 7 ) X0 )  ( <= ( + Y0 73 ) Y8 )  ( <= ( + Y8 57 ) Y0 )  )
( or ( <= ( + X0 15 ) X9 )  ( <= ( + X9 45 ) X0 )  ( <= ( + Y0 73 ) Y9 )  ( <= ( + Y9 52 ) Y0 )  )
( or ( <= ( + X0 15 ) X10 )  ( <= ( + X10 19 ) X0 )  ( <= ( + Y0 73 ) Y10 )  ( <= ( + Y10 39 ) Y0 )  )
( or ( <= ( + X0 15 ) X11 )  ( <= ( + X11 6 ) X0 )  ( <= ( + Y0 73 ) Y11 )  ( <= ( + Y11 85 ) Y0 )  )
( or ( <= ( + X1 49 ) X2 )  ( <= ( + X2 97 ) X1 )  ( <= ( + Y1 41 ) Y2 )  ( <= ( + Y2 1 ) Y1 )  )
( or ( <= ( + X1 49 ) X3 )  ( <= ( + X3 90 ) X1 )  ( <= ( + Y1 41 ) Y3 )  ( <= ( + Y3 25 ) Y1 )  )
( or ( <= ( + X1 49 ) X4 )  ( <= ( + X4 23 ) X1 )  ( <= ( + Y1 41 ) Y4 )  ( <= ( + Y4 1 ) Y1 )  )
( or ( <= ( + X1 49 ) X5 )  ( <= ( + X5 53 ) X1 )  ( <= ( + Y1 41 ) Y5 )  ( <= ( + Y5 10 ) Y1 )  )
( or ( <= ( + X1 49 ) X6 )  ( <= ( + X6 77 ) X1 )  ( <= ( + Y1 41 ) Y6 )  ( <= ( + Y6 39 ) Y1 )  )
( or ( <= ( + X1 49 ) X7 )  ( <= ( + X7 6 ) X1 )  ( <= ( + Y1 41 ) Y7 )  ( <= ( + Y7 11 ) Y1 )  )
( or ( <= ( + X1 49 ) X8 )  ( <= ( + X8 7 ) X1 )  ( <= ( + Y1 41 ) Y8 )  ( <= ( + Y8 57 ) Y1 )  )
( or ( <= ( + X1 49 ) X9 )  ( <= ( + X9 45 ) X1 )  ( <= ( + Y1 41 ) Y9 )  ( <= ( + Y9 52 ) Y1 )  )
( or ( <= ( + X1 49 ) X10 )  ( <= ( + X10 19 ) X1 )  ( <= ( + Y1 41 ) Y10 )  ( <= ( + Y10 39 ) Y1 )  )
( or ( <= ( + X1 49 ) X11 )  ( <= ( + X11 6 ) X1 )  ( <= ( + Y1 41 ) Y11 )  ( <= ( + Y11 85 ) Y1 )  )
( or ( <= ( + X2 97 ) X3 )  ( <= ( + X3 90 ) X2 )  ( <= ( + Y2 1 ) Y3 )  ( <= ( + Y3 25 ) Y2 )  )
( or ( <= ( + X2 97 ) X4 )  ( <= ( + X4 23 ) X2 )  ( <= ( + Y2 1 ) Y4 )  ( <= ( + Y4 1 ) Y2 )  )
( or ( <= ( + X2 97 ) X5 )  ( <= ( + X5 53 ) X2 )  ( <= ( + Y2 1 ) Y5 )  ( <= ( + Y5 10 ) Y2 )  )
( or ( <= ( + X2 97 ) X6 )  ( <= ( + X6 77 ) X2 )  ( <= ( + Y2 1 ) Y6 )  ( <= ( + Y6 39 ) Y2 )  )
( or ( <= ( + X2 97 ) X7 )  ( <= ( + X7 6 ) X2 )  ( <= ( + Y2 1 ) Y7 )  ( <= ( + Y7 11 ) Y2 )  )
( or ( <= ( + X2 97 ) X8 )  ( <= ( + X8 7 ) X2 )  ( <= ( + Y2 1 ) Y8 )  ( <= ( + Y8 57 ) Y2 )  )
( or ( <= ( + X2 97 ) X9 )  ( <= ( + X9 45 ) X2 )  ( <= ( + Y2 1 ) Y9 )  ( <= ( + Y9 52 ) Y2 )  )
( or ( <= ( + X2 97 ) X10 )  ( <= ( + X10 19 ) X2 )  ( <= ( + Y2 1 ) Y10 )  ( <= ( + Y10 39 ) Y2 )  )
( or ( <= ( + X2 97 ) X11 )  ( <= ( + X11 6 ) X2 )  ( <= ( + Y2 1 ) Y11 )  ( <= ( + Y11 85 ) Y2 )  )
( or ( <= ( + X3 90 ) X4 )  ( <= ( + X4 23 ) X3 )  ( <= ( + Y3 25 ) Y4 )  ( <= ( + Y4 1 ) Y3 )  )
( or ( <= ( + X3 90 ) X5 )  ( <= ( + X5 53 ) X3 )  ( <= ( + Y3 25 ) Y5 )  ( <= ( + Y5 10 ) Y3 )  )
( or ( <= ( + X3 90 ) X6 )  ( <= ( + X6 77 ) X3 )  ( <= ( + Y3 25 ) Y6 )  ( <= ( + Y6 39 ) Y3 )  )
( or ( <= ( + X3 90 ) X7 )  ( <= ( + X7 6 ) X3 )  ( <= ( + Y3 25 ) Y7 )  ( <= ( + Y7 11 ) Y3 )  )
( or ( <= ( + X3 90 ) X8 )  ( <= ( + X8 7 ) X3 )  ( <= ( + Y3 25 ) Y8 )  ( <= ( + Y8 57 ) Y3 )  )
( or ( <= ( + X3 90 ) X9 )  ( <= ( + X9 45 ) X3 )  ( <= ( + Y3 25 ) Y9 )  ( <= ( + Y9 52 ) Y3 )  )
( or ( <= ( + X3 90 ) X10 )  ( <= ( + X10 19 ) X3 )  ( <= ( + Y3 25 ) Y10 )  ( <= ( + Y10 39 ) Y3 )  )
( or ( <= ( + X3 90 ) X11 )  ( <= ( + X11 6 ) X3 )  ( <= ( + Y3 25 ) Y11 )  ( <= ( + Y11 85 ) Y3 )  )
( or ( <= ( + X4 23 ) X5 )  ( <= ( + X5 53 ) X4 )  ( <= ( + Y4 1 ) Y5 )  ( <= ( + Y5 10 ) Y4 )  )
( or ( <= ( + X4 23 ) X6 )  ( <= ( + X6 77 ) X4 )  ( <= ( + Y4 1 ) Y6 )  ( <= ( + Y6 39 ) Y4 )  )
( or ( <= ( + X4 23 ) X7 )  ( <= ( + X7 6 ) X4 )  ( <= ( + Y4 1 ) Y7 )  ( <= ( + Y7 11 ) Y4 )  )
( or ( <= ( + X4 23 ) X8 )  ( <= ( + X8 7 ) X4 )  ( <= ( + Y4 1 ) Y8 )  ( <= ( + Y8 57 ) Y4 )  )
( or ( <= ( + X4 23 ) X9 )  ( <= ( + X9 45 ) X4 )  ( <= ( + Y4 1 ) Y9 )  ( <= ( + Y9 52 ) Y4 )  )
( or ( <= ( + X4 23 ) X10 )  ( <= ( + X10 19 ) X4 )  ( <= ( + Y4 1 ) Y10 )  ( <= ( + Y10 39 ) Y4 )  )
( or ( <= ( + X4 23 ) X11 )  ( <= ( + X11 6 ) X4 )  ( <= ( + Y4 1 ) Y11 )  ( <= ( + Y11 85 ) Y4 )  )
( or ( <= ( + X5 53 ) X6 )  ( <= ( + X6 77 ) X5 )  ( <= ( + Y5 10 ) Y6 )  ( <= ( + Y6 39 ) Y5 )  )
( or ( <= ( + X5 53 ) X7 )  ( <= ( + X7 6 ) X5 )  ( <= ( + Y5 10 ) Y7 )  ( <= ( + Y7 11 ) Y5 )  )
( or ( <= ( + X5 53 ) X8 )  ( <= ( + X8 7 ) X5 )  ( <= ( + Y5 10 ) Y8 )  ( <= ( + Y8 57 ) Y5 )  )
( or ( <= ( + X5 53 ) X9 )  ( <= ( + X9 45 ) X5 )  ( <= ( + Y5 10 ) Y9 )  ( <= ( + Y9 52 ) Y5 )  )
( or ( <= ( + X5 53 ) X10 )  ( <= ( + X10 19 ) X5 )  ( <= ( + Y5 10 ) Y10 )  ( <= ( + Y10 39 ) Y5 )  )
( or ( <= ( + X5 53 ) X11 )  ( <= ( + X11 6 ) X5 )  ( <= ( + Y5 10 ) Y11 )  ( <= ( + Y11 85 ) Y5 )  )
( or ( <= ( + X6 77 ) X7 )  ( <= ( + X7 6 ) X6 )  ( <= ( + Y6 39 ) Y7 )  ( <= ( + Y7 11 ) Y6 )  )
( or ( <= ( + X6 77 ) X8 )  ( <= ( + X8 7 ) X6 )  ( <= ( + Y6 39 ) Y8 )  ( <= ( + Y8 57 ) Y6 )  )
( or ( <= ( + X6 77 ) X9 )  ( <= ( + X9 45 ) X6 )  ( <= ( + Y6 39 ) Y9 )  ( <= ( + Y9 52 ) Y6 )  )
( or ( <= ( + X6 77 ) X10 )  ( <= ( + X10 19 ) X6 )  ( <= ( + Y6 39 ) Y10 )  ( <= ( + Y10 39 ) Y6 )  )
( or ( <= ( + X6 77 ) X11 )  ( <= ( + X11 6 ) X6 )  ( <= ( + Y6 39 ) Y11 )  ( <= ( + Y11 85 ) Y6 )  )
( or ( <= ( + X7 6 ) X8 )  ( <= ( + X8 7 ) X7 )  ( <= ( + Y7 11 ) Y8 )  ( <= ( + Y8 57 ) Y7 )  )
( or ( <= ( + X7 6 ) X9 )  ( <= ( + X9 45 ) X7 )  ( <= ( + Y7 11 ) Y9 )  ( <= ( + Y9 52 ) Y7 )  )
( or ( <= ( + X7 6 ) X10 )  ( <= ( + X10 19 ) X7 )  ( <= ( + Y7 11 ) Y10 )  ( <= ( + Y10 39 ) Y7 )  )
( or ( <= ( + X7 6 ) X11 )  ( <= ( + X11 6 ) X7 )  ( <= ( + Y7 11 ) Y11 )  ( <= ( + Y11 85 ) Y7 )  )
( or ( <= ( + X8 7 ) X9 )  ( <= ( + X9 45 ) X8 )  ( <= ( + Y8 57 ) Y9 )  ( <= ( + Y9 52 ) Y8 )  )
( or ( <= ( + X8 7 ) X10 )  ( <= ( + X10 19 ) X8 )  ( <= ( + Y8 57 ) Y10 )  ( <= ( + Y10 39 ) Y8 )  )
( or ( <= ( + X8 7 ) X11 )  ( <= ( + X11 6 ) X8 )  ( <= ( + Y8 57 ) Y11 )  ( <= ( + Y11 85 ) Y8 )  )
( or ( <= ( + X9 45 ) X10 )  ( <= ( + X10 19 ) X9 )  ( <= ( + Y9 52 ) Y10 )  ( <= ( + Y10 39 ) Y9 )  )
( or ( <= ( + X9 45 ) X11 )  ( <= ( + X11 6 ) X9 )  ( <= ( + Y9 52 ) Y11 )  ( <= ( + Y11 85 ) Y9 )  )
( or ( <= ( + X10 19 ) X11 )  ( <= ( + X11 6 ) X10 )  ( <= ( + Y10 39 ) Y11 )  ( <= ( + Y11 85 ) Y10 )  )
( >= X0 0)
( <= ( + X0 15) Z)
( >= Y0 0)
( <= ( + Y0 73 ) 173)
( >= X1 0)
( <= ( + X1 49) Z)
( >= Y1 0)
( <= ( + Y1 41 ) 173)
( >= X2 0)
( <= ( + X2 97) Z)
( >= Y2 0)
( <= ( + Y2 1 ) 173)
( >= X3 0)
( <= ( + X3 90) Z)
( >= Y3 0)
( <= ( + Y3 25 ) 173)
( >= X4 0)
( <= ( + X4 23) Z)
( >= Y4 0)
( <= ( + Y4 1 ) 173)
( >= X5 0)
( <= ( + X5 53) Z)
( >= Y5 0)
( <= ( + Y5 10 ) 173)
( >= X6 0)
( <= ( + X6 77) Z)
( >= Y6 0)
( <= ( + Y6 39 ) 173)
( >= X7 0)
( <= ( + X7 6) Z)
( >= Y7 0)
( <= ( + Y7 11 ) 173)
( >= X8 0)
( <= ( + X8 7) Z)
( >= Y8 0)
( <= ( + Y8 57 ) 173)
( >= X9 0)
( <= ( + X9 45) Z)
( >= Y9 0)
( <= ( + Y9 52 ) 173)
( >= X10 0)
( <= ( + X10 19) Z)
( >= Y10 0)
( <= ( + Y10 39 ) 173)
( >= X11 0)
( <= ( + X11 6) Z)
( >= Y11 0)
( <= ( + Y11 85 ) 173)
) )
)(=> $phi $goal))))